c Sudoku solution
p cnf 729 0
235 0
252 0
299 0
329 0
333 0
354 0
377 0
396 0
515 0
531 0
568 0
594 0
642 0
655 0
661 0
365 0
679 0
732 0
823 0
881 0
928 0
725 0
934 0
949 0
845 0
789 0
559 0
169 0
966 0
862 0
874 0
776 0
972 0
573 0
613 0
624 0
214 0
184 0
456 0
547 0
246 0
283 0
267 0
221 0
278 0
382 0
341 0
318 0
586 0
492 0
471 0
485 0
419 0
427 0
522 0
636 0
438 0
112 0
816 0
839 0
126 0
137 0
175 0
191 0
987 0
995 0
793 0
898 0
764 0
953 0
751 0
748 0
857 0
717 0
911 0
444 0
463 0
143 0
158 0
688 0
697 0
